N: 5000
R: 1000
Capacities: 1239443
------
Total value: 1239443
Total weight: 1239443
Packed Items: [0, 1, 2, 3, 4, 5, 6, 7, 8, 9, 10, 11, 12, 13, 14, 15, 16, 17, 18, 19, 20, 21, 22, 23, 24, 25, 26, 27, 28, 29, 30, 31, 32, 33, 34, 35, 36, 37, 38, 39, 40, 41, 42, 43, 44, 45, 46, 47, 48, 49, 50, 51, 52, 53, 54, 55, 56, 57, 58, 59, 60, 61, 62, 63, 64, 65, 66, 67, 68, 69, 70, 71, 72, 73, 74, 75, 76, 77, 78, 79, 80, 81, 82, 83, 84, 85, 86, 87, 88, 89, 90, 91, 92, 93, 94, 95, 96, 97, 98, 99, 100, 101, 102, 103, 104, 105, 106, 107, 108, 109, 110, 111, 112, 113, 114, 115, 116, 117, 118, 119, 120, 121, 122, 123, 124, 125, 126, 127, 128, 129, 130, 131, 132, 133, 134, 135, 136, 137, 138, 139, 140, 141, 142, 143, 144, 145, 146, 147, 148, 149, 150, 151, 152, 153, 154, 155, 156, 157, 158, 159, 160, 161, 162, 163, 164, 165, 166, 167, 168, 169, 170, 171, 172, 173, 174, 175, 176, 177, 178, 179, 180, 181, 182, 183, 184, 185, 186, 187, 188, 189, 190, 191, 192, 193, 194, 195, 196, 197, 198, 199, 200, 201, 202, 203, 204, 205, 206, 207, 208, 209, 210, 211, 212, 213, 214, 215, 216, 217, 218, 219, 220, 221, 222, 223, 224, 225, 226, 227, 228, 229, 230, 231, 232, 233, 234, 235, 236, 237, 238, 239, 240, 241, 242, 243, 244, 245, 246, 247, 248, 249, 250, 251, 252, 253, 254, 255, 256, 257, 258, 259, 260, 261, 262, 263, 264, 265, 266, 267, 268, 269, 270, 271, 272, 273, 274, 275, 276, 277, 278, 279, 280, 281, 282, 283, 284, 285, 286, 287, 288, 289, 290, 291, 292, 293, 294, 295, 296, 297, 298, 299, 300, 301, 302, 303, 304, 305, 306, 307, 308, 309, 310, 311, 312, 313, 314, 315, 316, 317, 318, 319, 320, 321, 322, 323, 324, 325, 326, 327, 328, 329, 330, 331, 332, 333, 334, 335, 336, 337, 338, 339, 340, 341, 342, 343, 344, 345, 346, 347, 348, 349, 350, 351, 352, 353, 354, 355, 356, 357, 358, 359, 360, 361, 362, 363, 364, 365, 366, 367, 368, 369, 370, 371, 372, 373, 374, 375, 376, 377, 378, 379, 380, 381, 382, 383, 384, 385, 386, 387, 388, 389, 390, 391, 392, 393, 394, 395, 396, 397, 398, 399, 400, 401, 402, 403, 404, 405, 406, 407, 408, 409, 410, 411, 412, 413, 414, 415, 416, 417, 418, 419, 420, 421, 422, 423, 424, 425, 426, 427, 428, 429, 430, 431, 432, 433, 434, 435, 436, 437, 438, 439, 440, 441, 442, 443, 444, 445, 446, 447, 448, 449, 450, 451, 452, 453, 454, 455, 456, 457, 458, 459, 460, 461, 462, 463, 464, 465, 466, 467, 468, 469, 470, 471, 472, 473, 474, 475, 476, 477, 478, 479, 480, 481, 482, 483, 484, 485, 486, 487, 488, 489, 490, 491, 492, 493, 494, 495, 496, 497, 498, 499, 500, 501, 502, 503, 504, 505, 506, 507, 508, 509, 510, 511, 512, 513, 514, 515, 516, 517, 518, 519, 520, 521, 522, 523, 524, 525, 526, 527, 528, 529, 530, 531, 532, 533, 534, 535, 536, 537, 538, 539, 540, 541, 542, 543, 544, 545, 546, 547, 548, 549, 550, 551, 552, 553, 554, 555, 556, 557, 558, 559, 560, 561, 562, 563, 564, 565, 566, 567, 568, 569, 570, 571, 572, 573, 574, 575, 576, 577, 578, 579, 580, 581, 582, 583, 584, 585, 586, 587, 588, 589, 590, 591, 592, 593, 594, 595, 596, 597, 598, 599, 600, 601, 602, 603, 604, 605, 606, 607, 608, 609, 610, 611, 612, 613, 614, 615, 616, 617, 618, 619, 620, 621, 622, 623, 624, 625, 626, 627, 628, 629, 630, 631, 632, 633, 634, 635, 636, 637, 638, 639, 640, 641, 642, 643, 644, 645, 646, 647, 648, 649, 650, 651, 652, 653, 654, 655, 656, 657, 658, 659, 660, 661, 662, 663, 664, 665, 666, 667, 668, 669, 670, 671, 672, 673, 674, 675, 676, 677, 678, 679, 680, 681, 682, 683, 684, 685, 686, 687, 688, 689, 690, 691, 692, 693, 694, 695, 696, 697, 698, 699, 700, 701, 702, 703, 704, 705, 706, 707, 708, 709, 710, 711, 712, 713, 714, 715, 716, 717, 718, 719, 720, 721, 722, 723, 724, 725, 726, 727, 728, 729, 730, 731, 732, 733, 734, 735, 736, 737, 738, 739, 740, 741, 742, 743, 744, 745, 746, 747, 748, 749, 750, 751, 752, 753, 754, 755, 756, 757, 758, 759, 760, 761, 762, 763, 764, 765, 766, 767, 768, 769, 770, 771, 772, 773, 774, 775, 776, 777, 778, 779, 780, 781, 782, 783, 784, 785, 786, 787, 788, 789, 790, 791, 792, 793, 794, 795, 796, 797, 798, 799, 800, 801, 802, 803, 804, 805, 806, 807, 808, 809, 810, 811, 812, 813, 814, 815, 816, 817, 818, 819, 820, 821, 822, 823, 824, 825, 826, 827, 828, 829, 830, 831, 832, 833, 834, 835, 836, 837, 838, 839, 840, 841, 842, 843, 844, 845, 846, 847, 848, 849, 850, 851, 852, 853, 854, 855, 856, 857, 858, 859, 860, 861, 862, 863, 864, 865, 866, 867, 868, 869, 870, 871, 872, 873, 874, 875, 876, 877, 878, 879, 880, 881, 882, 883, 884, 885, 886, 887, 888, 889, 890, 891, 892, 893, 894, 895, 896, 897, 898, 899, 900, 901, 902, 903, 904, 905, 906, 907, 908, 909, 910, 911, 912, 913, 914, 915, 916, 917, 918, 919, 920, 921, 922, 923, 924, 925, 926, 927, 928, 929, 930, 931, 932, 933, 934, 935, 936, 937, 938, 939, 940, 941, 942, 943, 944, 945, 946, 947, 948, 949, 950, 951, 952, 953, 954, 955, 956, 957, 958, 959, 960, 961, 962, 963, 964, 965, 966, 967, 968, 969, 970, 971, 972, 973, 974, 975, 976, 977, 978, 979, 980, 981, 982, 983, 984, 985, 986, 987, 988, 989, 990, 991, 992, 993, 994, 995, 996, 997, 998, 999, 1000, 1001, 1002, 1003, 1004, 1005, 1006, 1007, 1008, 1009, 1010, 1011, 1012, 1013, 1014, 1015, 1016, 1017, 1018, 1019, 1020, 1021, 1022, 1023, 1024, 1025, 1026, 1027, 1028, 1029, 1030, 1031, 1032, 1033, 1034, 1035, 1036, 1037, 1038, 1039, 1040, 1041, 1042, 1043, 1044, 1045, 1046, 1047, 1048, 1049, 1050, 1051, 1052, 1053, 1054, 1055, 1056, 1057, 1058, 1059, 1060, 1061, 1062, 1063, 1064, 1065, 1066, 1067, 1068, 1069, 1070, 1071, 1072, 1073, 1074, 1075, 1076, 1077, 1078, 1079, 1080, 1081, 1082, 1083, 1084, 1085, 1086, 1087, 1088, 1089, 1090, 1091, 1092, 1093, 1094, 1095, 1096, 1097, 1098, 1099, 1100, 1101, 1102, 1103, 1104, 1105, 1106, 1107, 1108, 1109, 1110, 1111, 1112, 1113, 1114, 1115, 1116, 1117, 1118, 1119, 1120, 1121, 1122, 1123, 1124, 1125, 1126, 1127, 1128, 1129, 1130, 1131, 1132, 1133, 1134, 1135, 1136, 1137, 1138, 1139, 1140, 1141, 1142, 1143, 1144, 1145, 1146, 1147, 1148, 1149, 1150, 1151, 1152, 1153, 1154, 1155, 1156, 1157, 1158, 1159, 1160, 1161, 1162, 1163, 1164, 1165, 1166, 1167, 1168, 1169, 1170, 1171, 1172, 1173, 1174, 1175, 1176, 1177, 1178, 1179, 1180, 1181, 1182, 1183, 1184, 1185, 1186, 1187, 1188, 1189, 1190, 1191, 1192, 1193, 1194, 1195, 1196, 1197, 1198, 1199, 1200, 1201, 1202, 1203, 1204, 1205, 1206, 1207, 1208, 1209, 1210, 1211, 1212, 1213, 1214, 1215, 1216, 1217, 1218, 1219, 1220, 1221, 1222, 1223, 1224, 1225, 1226, 1227, 1228, 1229, 1230, 1231, 1232, 1233, 1234, 1235, 1236, 1237, 1238, 1239, 1240, 1241, 1242, 1243, 1244, 1245, 1246, 1247, 1248, 1249, 1250, 1251, 1252, 1253, 1254, 1255, 1256, 1257, 1258, 1259, 1260, 1261, 1262, 1263, 1264, 1265, 1266, 1267, 1268, 1269, 1270, 1271, 1272, 1273, 1274, 1275, 1276, 1277, 1278, 1279, 1280, 1281, 1282, 1283, 1284, 1285, 1286, 1287, 1288, 1289, 1290, 1291, 1292, 1293, 1294, 1295, 1296, 1297, 1298, 1299, 1300, 1301, 1302, 1303, 1304, 1305, 1306, 1307, 1308, 1309, 1310, 1311, 1312, 1313, 1314, 1315, 1316, 1317, 1318, 1319, 1320, 1321, 1322, 1323, 1324, 1325, 1326, 1327, 1328, 1329, 1330, 1331, 1332, 1333, 1334, 1335, 1336, 1337, 1338, 1339, 1340, 1341, 1342, 1343, 1344, 1345, 1346, 1347, 1348, 1349, 1350, 1351, 1352, 1353, 1354, 1355, 1356, 1357, 1358, 1359, 1360, 1361, 1362, 1363, 1364, 1365, 1366, 1367, 1368, 1369, 1370, 1371, 1372, 1373, 1374, 1375, 1376, 1377, 1378, 1379, 1380, 1381, 1382, 1383, 1384, 1385, 1386, 1387, 1388, 1389, 1390, 1391, 1392, 1393, 1394, 1395, 1396, 1397, 1398, 1399, 1400, 1401, 1402, 1403, 1404, 1405, 1406, 1407, 1408, 1409, 1410, 1411, 1412, 1413, 1414, 1415, 1416, 1417, 1418, 1419, 1420, 1421, 1422, 1423, 1424, 1425, 1426, 1427, 1428, 1429, 1430, 1431, 1432, 1433, 1434, 1435, 1436, 1437, 1438, 1439, 1440, 1441, 1442, 1443, 1444, 1445, 1446, 1447, 1448, 1449, 1450, 1451, 1452, 1453, 1454, 1455, 1456, 1457, 1458, 1459, 1460, 1461, 1462, 1463, 1464, 1465, 1466, 1467, 1468, 1469, 1470, 1471, 1472, 1473, 1474, 1475, 1476, 1477, 1478, 1479, 1480, 1481, 1482, 1483, 1484, 1485, 1486, 1487, 1488, 1489, 1490, 1491, 1492, 1493, 1494, 1495, 1496, 1497, 1498, 1499, 1500, 1501, 1502, 1503, 1504, 1505, 1506, 1507, 1508, 1509, 1510, 1511, 1512, 1513, 1514, 1515, 1516, 1517, 1518, 1519, 1520, 1521, 1522, 1523, 1524, 1525, 1526, 1527, 1528, 1529, 1530, 1531, 1532, 1533, 1534, 1535, 1536, 1537, 1538, 1539, 1540, 1541, 1542, 1543, 1544, 1545, 1546, 1547, 1548, 1549, 1550, 1551, 1552, 1553, 1554, 1555, 1556, 1557, 1558, 1559, 1560, 1561, 1562, 1563, 1564, 1565, 1566, 1567, 1568, 1569, 1570, 1571, 1572, 1573, 1574, 1575, 1576, 1577, 1578, 1579, 1580, 1581, 1582, 1583, 1584, 1585, 1586, 1587, 1588, 1589, 1590, 1591, 1592, 1593, 1594, 1595, 1596, 1597, 1598, 1599, 1600, 1601, 1602, 1603, 1604, 1605, 1606, 1607, 1608, 1609, 1610, 1611, 1612, 1613, 1614, 1615, 1616, 1617, 1618, 1619, 1620, 1621, 1622, 1623, 1624, 1625, 1626, 1627, 1628, 1629, 1630, 1631, 1632, 1633, 1634, 1635, 1636, 1637, 1638, 1639, 1640, 1641, 1642, 1643, 1644, 1645, 1646, 1647, 1648, 1649, 1650, 1651, 1652, 1653, 1654, 1655, 1656, 1657, 1658, 1659, 1660, 1661, 1662, 1663, 1664, 1665, 1666, 1667, 1668, 1669, 1670, 1671, 1672, 1673, 1674, 1675, 1676, 1677, 1678, 1679, 1680, 1681, 1682, 1683, 1684, 1685, 1686, 1687, 1688, 1689, 1690, 1691, 1692, 1693, 1694, 1695, 1696, 1697, 1698, 1699, 1700, 1701, 1702, 1703, 1704, 1705, 1706, 1707, 1708, 1709, 1710, 1711, 1712, 1713, 1714, 1715, 1716, 1717, 1718, 1719, 1720, 1721, 1722, 1723, 1724, 1725, 1726, 1727, 1728, 1729, 1730, 1731, 1732, 1733, 1734, 1735, 1736, 1737, 1738, 1739, 1740, 1741, 1742, 1743, 1744, 1745, 1746, 1747, 1748, 1749, 1750, 1751, 1752, 1753, 1754, 1755, 1756, 1757, 1758, 1759, 1760, 1761, 1762, 1763, 1764, 1765, 1766, 1767, 1768, 1769, 1770, 1771, 1772, 1773, 1774, 1775, 1776, 1777, 1778, 1779, 1780, 1781, 1782, 1783, 1784, 1785, 1786, 1787, 1788, 1789, 1790, 1791, 1792, 1793, 1794, 1795, 1796, 1797, 1798, 1799, 1800, 1801, 1802, 1803, 1804, 1805, 1806, 1807, 1808, 1809, 1810, 1811, 1812, 1813, 1814, 1815, 1816, 1817, 1818, 1819, 1820, 1821, 1822, 1823, 1824, 1825, 1826, 1827, 1828, 1829, 1830, 1831, 1832, 1833, 1834, 1835, 1836, 1837, 1838, 1839, 1840, 1841, 1842, 1843, 1844, 1845, 1846, 1847, 1848, 1849, 1850, 1851, 1852, 1853, 1854, 1855, 1856, 1857, 1858, 1859, 1860, 1861, 1862, 1863, 1864, 1865, 1866, 1867, 1868, 1869, 1870, 1871, 1872, 1873, 1874, 1875, 1876, 1877, 1878, 1879, 1880, 1881, 1882, 1883, 1884, 1885, 1886, 1887, 1888, 1889, 1890, 1891, 1892, 1893, 1894, 1895, 1896, 1897, 1898, 1899, 1900, 1901, 1902, 1903, 1904, 1905, 1906, 1907, 1908, 1909, 1910, 1911, 1912, 1913, 1914, 1915, 1916, 1917, 1918, 1919, 1920, 1921, 1922, 1923, 1924, 1925, 1926, 1927, 1928, 1929, 1930, 1931, 1932, 1933, 1934, 1935, 1936, 1937, 1938, 1939, 1940, 1941, 1942, 1943, 1944, 1945, 1946, 1947, 1948, 1949, 1950, 1951, 1952, 1953, 1954, 1955, 1956, 1957, 1958, 1959, 1960, 1961, 1962, 1963, 1964, 1965, 1966, 1967, 1968, 1969, 1970, 1971, 1972, 1973, 1974, 1975, 1976, 1977, 1978, 1979, 1980, 1981, 1982, 1983, 1984, 1985, 1986, 1987, 1988, 1989, 1990, 1991, 1992, 1993, 1994, 1995, 1996, 1997, 1998, 1999, 2000, 2001, 2002, 2003, 2004, 2005, 2006, 2007, 2008, 2009, 2010, 2011, 2012, 2013, 2014, 2015, 2016, 2017, 2018, 2019, 2020, 2021, 2022, 2023, 2024, 2025, 2026, 2027, 2028, 2029, 2030, 2031, 2032, 2033, 2034, 2035, 2036, 2037, 2038, 2039, 2040, 2041, 2042, 2043, 2044, 2045, 2046, 2047, 2048, 2049, 2050, 2051, 2052, 2053, 2054, 2055, 2056, 2057, 2058, 2059, 2060, 2061, 2062, 2063, 2064, 2065, 2066, 2067, 2068, 2069, 2070, 2071, 2072, 2073, 2074, 2075, 2076, 2077, 2078, 2079, 2080, 2081, 2082, 2083, 2084, 2085, 2086, 2087, 2088, 2089, 2090, 2091, 2092, 2093, 2094, 2095, 2096, 2097, 2098, 2099, 2100, 2101, 2102, 2103, 2104, 2105, 2106, 2107, 2108, 2109, 2110, 2111, 2112, 2113, 2114, 2115, 2116, 2117, 2118, 2119, 2120, 2121, 2122, 2123, 2124, 2125, 2126, 2127, 2128, 2129, 2130, 2131, 2132, 2133, 2134, 2135, 2136, 2137, 2138, 2139, 2140, 2141, 2142, 2143, 2144, 2145, 2146, 2147, 2148, 2149, 2150, 2151, 2152, 2153, 2154, 2155, 2156, 2157, 2158, 2159, 2160, 2161, 2162, 2163, 2164, 2165, 2166, 2167, 2168, 2169, 2170, 2171, 2172, 2173, 2174, 2175, 2176, 2177, 2178, 2179, 2180, 2181, 2182, 2183, 2184, 2185, 2186, 2187, 2188, 2189, 2190, 2191, 2192, 2193, 2194, 2195, 2196, 2197, 2198, 2199, 2200, 2201, 2202, 2203, 2204, 2205, 2206, 2207, 2208, 2209, 2210, 2211, 2212, 2213, 2214, 2215, 2216, 2217, 2218, 2219, 2220, 2221, 2222, 2223, 2224, 2225, 2226, 2227, 2228, 2229, 2230, 2231, 2232, 2233, 2234, 2235, 2236, 2237, 2238, 2239, 2240, 2241, 2242, 2243, 2244, 2245, 2246, 2247, 2248, 2249, 2250, 2251, 2252, 2253, 2254, 2255, 2256, 2257, 2258, 2259, 2260, 2261, 2262, 2263, 2264, 2265, 2266, 2267, 2268, 2269, 2270, 2271, 2272, 2273, 2274, 2275, 2276, 2277, 2278, 2279, 2280, 2281, 2282, 2283, 2284, 2285, 2286, 2287, 2288, 2289, 2290, 2291, 2292, 2293, 2294, 2295, 2296, 2297, 2298, 2299, 2300, 2301, 2302, 2303, 2304, 2305, 2306, 2307, 2308, 2309, 2310, 2311, 2312, 2313, 2314, 2315, 2316, 2317, 2318, 2319, 2320, 2321, 2322, 2323, 2324, 2325, 2326, 2327, 2328, 2329, 2330, 2331, 2332, 2333, 2334, 2335, 2336, 2337, 2338, 2339, 2340, 2342, 2343, 2344, 2345, 2346, 2347, 2348, 2349, 2350, 2351, 2352, 2353, 2354, 2355, 2356, 2357, 2358, 2359, 2360, 2361, 2362, 2363, 2364, 2365, 2366, 2367, 2368, 2369, 2370, 2371, 2372, 2373, 2374, 2375, 2376, 2377, 2378, 2379, 2380, 2381, 2382, 2383, 2384, 2385, 2386, 2387, 2388, 2389, 2390, 2391, 2392, 2393, 2394, 2395, 2396, 2397, 2398, 2399, 2400, 2401, 2402, 2403, 2404, 2405, 2406, 2407, 2408, 2409, 2410, 2411, 2412, 2413, 2414, 2415, 2416, 2417, 2418, 2419, 2420, 2421, 2422, 2423, 2424, 2425, 2426, 2427, 2428, 2429, 2430, 2431, 2432, 2433, 2434, 2435, 2436, 2437, 2438, 2439, 2440, 2441, 2442, 2443, 2444, 2445, 2446, 2447, 2448, 2449, 2450, 2451, 2452, 2453, 2454, 2455, 2456, 2457, 2458, 2459, 2460, 2461, 2462, 2463, 2464, 2465, 2466, 2467, 2468, 2469, 2470, 2471, 2472, 2473, 2474, 2475, 2476, 2477, 2478, 2479, 2480, 2481, 2482, 2483, 2484, 2485, 2486, 2487, 2488, 2489, 2490, 2491, 2492, 2493, 2494, 2496, 2497, 2498, ]
Packed Weights: [623, 742, 796, 943, 740, 923, 30, 466, 944, 649, 901, 114, 470, 247, 544, 574, 14, 217, 280, 917, 766, 160, 798, 139, 618, 127, 2, 872, 210, 216, 983, 873, 290, 962, 540, 678, 205, 941, 691, 967, 894, 299, 362, 166, 146, 66, 302, 604, 4, 678, 338, 310, 819, 481, 316, 482, 705, 58, 976, 23, 750, 845, 19, 788, 367, 579, 10, 47, 181, 956, 197, 756, 930, 943, 345, 355, 525, 776, 109, 749, 798, 860, 37, 946, 92, 341, 611, 919, 340, 925, 546, 313, 317, 178, 79, 149, 690, 997, 162, 49, 987, 534, 406, 238, 594, 827, 456, 422, 56, 917, 33, 494, 839, 131, 732, 950, 631, 789, 107, 435, 150, 845, 295, 454, 1000, 853, 977, 454, 489, 730, 480, 292, 404, 147, 378, 989, 960, 627, 500, 339, 90, 273, 783, 868, 362, 787, 775, 695, 665, 760, 364, 705, 281, 486, 770, 691, 294, 946, 650, 581, 12, 547, 251, 672, 463, 817, 648, 798, 348, 645, 738, 829, 351, 843, 870, 689, 977, 957, 519, 530, 167, 837, 938, 478, 692, 720, 731, 172, 781, 581, 666, 421, 624, 775, 637, 721, 28, 161, 442, 651, 220, 686, 631, 42, 472, 227, 55, 134, 318, 182, 194, 36, 466, 381, 612, 591, 238, 904, 1, 406, 279, 411, 116, 832, 374, 37, 614, 95, 546, 340, 581, 959, 819, 420, 813, 643, 370, 143, 596, 564, 958, 968, 609, 352, 894, 1, 108, 566, 616, 141, 630, 892, 376, 432, 227, 292, 973, 380, 962, 914, 596, 260, 981, 497, 416, 320, 985, 492, 287, 477, 122, 622, 444, 294, 782, 827, 14, 533, 274, 936, 782, 246, 268, 155, 989, 294, 609, 475, 645, 604, 744, 119, 761, 301, 534, 337, 297, 530, 465, 362, 746, 591, 37, 253, 456, 917, 888, 546, 15, 779, 428, 576, 709, 633, 482, 912, 386, 392, 852, 197, 297, 831, 67, 837, 695, 433, 287, 781, 911, 143, 479, 550, 498, 331, 154, 586, 812, 69, 231, 820, 792, 664, 26, 723, 979, 999, 702, 49, 843, 220, 646, 953, 713, 135, 293, 918, 150, 611, 414, 162, 623, 44, 109, 380, 73, 58, 576, 743, 879, 135, 432, 315, 601, 490, 939, 375, 56, 698, 152, 632, 506, 911, 555, 621, 264, 552, 255, 751, 517, 134, 235, 372, 737, 180, 714, 656, 86, 668, 92, 125, 594, 239, 877, 481, 324, 797, 30, 726, 54, 151, 953, 682, 224, 117, 973, 666, 821, 140, 625, 355, 236, 334, 614, 349, 386, 137, 832, 648, 805, 434, 852, 518, 593, 574, 741, 396, 97, 34, 203, 40, 890, 481, 761, 1, 471, 890, 620, 429, 466, 100, 155, 160, 375, 386, 881, 153, 255, 278, 162, 288, 236, 483, 33, 925, 369, 938, 688, 674, 472, 946, 118, 669, 292, 675, 730, 164, 202, 25, 231, 79, 402, 974, 365, 312, 469, 284, 733, 718, 164, 241, 673, 941, 646, 431, 976, 7, 61, 780, 411, 45, 549, 990, 519, 351, 94, 72, 899, 492, 936, 54, 244, 51, 398, 61, 256, 408, 306, 52, 38, 972, 180, 509, 403, 532, 85, 314, 108, 542, 922, 599, 857, 215, 18, 540, 487, 572, 377, 626, 726, 913, 308, 450, 827, 224, 116, 312, 88, 773, 820, 313, 130, 82, 245, 85, 429, 577, 246, 62, 701, 49, 200, 287, 374, 99, 421, 314, 753, 557, 897, 655, 760, 575, 443, 817, 656, 955, 729, 702, 268, 813, 383, 131, 66, 170, 263, 676, 286, 64, 764, 558, 28, 51, 131, 358, 860, 950, 613, 232, 429, 363, 331, 13, 585, 827, 727, 96, 531, 172, 710, 447, 939, 795, 119, 318, 915, 461, 435, 442, 768, 937, 533, 970, 597, 104, 815, 420, 53, 979, 33, 577, 482, 882, 393, 216, 278, 202, 563, 357, 752, 242, 352, 249, 983, 841, 850, 619, 401, 144, 832, 491, 38, 170, 99, 718, 901, 200, 798, 325, 683, 864, 624, 801, 377, 11, 512, 587, 185, 390, 318, 28, 313, 383, 477, 704, 400, 983, 816, 924, 693, 671, 537, 799, 363, 594, 680, 523, 285, 78, 88, 356, 581, 760, 715, 307, 930, 275, 717, 73, 754, 670, 957, 898, 688, 839, 739, 611, 209, 517, 897, 240, 975, 544, 394, 3, 391, 179, 654, 900, 911, 614, 387, 109, 689, 554, 716, 375, 887, 213, 306, 268, 623, 898, 168, 633, 767, 225, 63, 566, 831, 879, 729, 417, 426, 529, 905, 303, 281, 606, 967, 188, 31, 116, 563, 604, 184, 191, 595, 647, 691, 729, 62, 485, 835, 958, 319, 851, 646, 927, 230, 697, 841, 477, 101, 194, 157, 93, 152, 616, 105, 759, 737, 817, 804, 714, 925, 957, 626, 966, 104, 103, 65, 207, 375, 459, 681, 743, 84, 404, 544, 376, 118, 598, 375, 684, 496, 963, 946, 73, 760, 722, 296, 117, 480, 355, 738, 919, 383, 291, 499, 697, 790, 576, 296, 337, 849, 520, 51, 421, 238, 667, 74, 272, 97, 478, 985, 542, 387, 934, 92, 356, 811, 6, 766, 362, 17, 251, 459, 383, 517, 54, 219, 975, 443, 472, 86, 280, 955, 688, 508, 53, 393, 779, 435, 594, 903, 646, 636, 37, 24, 770, 414, 875, 826, 916, 379, 1000, 757, 892, 149, 781, 423, 973, 995, 217, 422, 271, 470, 287, 667, 124, 170, 458, 74, 382, 898, 886, 197, 19, 829, 961, 599, 137, 237, 921, 938, 32, 185, 430, 267, 754, 373, 776, 152, 519, 975, 703, 91, 111, 644, 375, 369, 478, 582, 966, 241, 569, 264, 546, 732, 134, 482, 706, 9, 772, 419, 505, 611, 793, 57, 501, 39, 386, 346, 22, 298, 451, 655, 925, 371, 531, 714, 938, 950, 989, 302, 167, 932, 78, 449, 737, 529, 389, 925, 300, 552, 830, 139, 351, 495, 566, 208, 454, 60, 88, 343, 144, 968, 264, 276, 784, 742, 263, 830, 626, 389, 629, 246, 264, 877, 439, 898, 177, 138, 52, 740, 562, 10, 44, 825, 495, 872, 40, 589, 118, 722, 612, 613, 222, 950, 112, 65, 685, 93, 67, 461, 649, 893, 721, 70, 644, 844, 121, 755, 259, 299, 2, 759, 516, 902, 466, 156, 217, 264, 947, 206, 89, 353, 80, 426, 622, 651, 175, 139, 492, 688, 448, 574, 913, 146, 268, 494, 537, 901, 556, 663, 420, 785, 836, 294, 108, 260, 358, 890, 265, 630, 641, 957, 117, 770, 337, 103, 633, 845, 583, 50, 973, 385, 637, 724, 261, 409, 330, 96, 65, 717, 411, 870, 63, 302, 181, 944, 791, 897, 507, 105, 417, 227, 27, 565, 290, 108, 512, 934, 946, 467, 103, 769, 115, 538, 84, 988, 543, 438, 273, 551, 973, 428, 210, 515, 919, 382, 634, 919, 326, 811, 530, 140, 54, 939, 466, 444, 918, 574, 501, 285, 745, 257, 471, 759, 605, 135, 203, 695, 730, 103, 998, 134, 168, 90, 447, 620, 858, 164, 699, 106, 581, 252, 357, 53, 721, 123, 765, 337, 592, 640, 489, 874, 920, 283, 334, 877, 133, 421, 415, 977, 129, 656, 758, 729, 2, 944, 313, 854, 662, 421, 838, 676, 340, 732, 506, 712, 615, 797, 160, 495, 2, 791, 772, 838, 44, 536, 479, 120, 203, 975, 853, 239, 830, 651, 385, 645, 230, 274, 11, 657, 582, 744, 504, 435, 307, 736, 373, 597, 758, 445, 687, 62, 261, 841, 148, 57, 15, 767, 107, 459, 439, 803, 477, 522, 25, 796, 768, 624, 835, 615, 717, 851, 618, 21, 885, 990, 202, 67, 340, 101, 370, 90, 221, 4, 429, 301, 729, 389, 167, 954, 895, 690, 218, 403, 451, 409, 27, 456, 768, 694, 861, 683, 763, 871, 918, 794, 417, 660, 659, 883, 714, 444, 191, 328, 251, 682, 770, 193, 534, 841, 366, 95, 606, 363, 144, 289, 7, 149, 426, 105, 7, 550, 958, 835, 327, 925, 80, 151, 7, 59, 602, 757, 478, 804, 452, 919, 609, 537, 171, 427, 441, 823, 230, 295, 817, 71, 537, 220, 666, 595, 95, 731, 408, 321, 857, 779, 310, 678, 124, 519, 83, 641, 917, 637, 41, 514, 470, 444, 152, 279, 450, 72, 675, 244, 291, 91, 303, 932, 292, 96, 346, 946, 88, 343, 210, 682, 462, 99, 863, 329, 687, 453, 872, 59, 229, 286, 265, 822, 503, 347, 507, 846, 570, 452, 657, 616, 406, 427, 132, 440, 879, 307, 366, 604, 591, 176, 446, 734, 42, 109, 756, 906, 68, 82, 627, 285, 657, 35, 457, 162, 333, 694, 511, 854, 842, 620, 848, 178, 475, 320, 625, 112, 886, 371, 784, 943, 941, 391, 857, 997, 131, 748, 728, 458, 278, 174, 412, 932, 402, 256, 620, 438, 614, 455, 287, 36, 819, 659, 244, 500, 581, 504, 901, 779, 307, 339, 612, 163, 935, 46, 500, 274, 527, 46, 225, 990, 789, 222, 457, 33, 123, 192, 985, 312, 248, 66, 110, 996, 741, 921, 836, 783, 256, 170, 270, 66, 176, 720, 492, 11, 305, 850, 851, 730, 732, 912, 558, 384, 574, 283, 37, 260, 458, 121, 81, 248, 369, 958, 487, 837, 745, 593, 323, 393, 318, 635, 856, 791, 296, 150, 9, 585, 229, 6, 303, 229, 206, 665, 585, 282, 731, 207, 922, 119, 593, 705, 733, 488, 872, 630, 691, 80, 187, 466, 546, 96, 742, 347, 476, 522, 839, 303, 560, 606, 656, 313, 280, 471, 602, 645, 134, 447, 561, 195, 103, 929, 21, 499, 295, 32, 270, 162, 401, 910, 80, 352, 695, 625, 21, 229, 282, 895, 443, 258, 481, 486, 150, 668, 721, 478, 538, 771, 957, 613, 45, 506, 663, 331, 685, 368, 617, 615, 671, 926, 708, 710, 705, 231, 615, 621, 61, 755, 227, 493, 524, 723, 766, 469, 940, 444, 567, 992, 324, 715, 957, 85, 778, 652, 540, 790, 860, 147, 487, 616, 699, 959, 803, 829, 65, 427, 914, 947, 757, 334, 770, 532, 668, 638, 866, 715, 971, 494, 494, 658, 562, 50, 960, 319, 500, 43, 191, 929, 278, 299, 812, 242, 668, 569, 897, 477, 329, 260, 364, 1, 120, 149, 315, 769, 942, 355, 250, 294, 630, 479, 118, 524, 269, 145, 786, 106, 440, 766, 543, 874, 318, 947, 44, 896, 425, 4, 260, 989, 717, 738, 812, 7, 307, 466, 910, 909, 150, 988, 555, 305, 83, 427, 521, 454, 311, 948, 476, 308, 778, 245, 423, 105, 239, 997, 622, 524, 674, 673, 522, 367, 148, 30, 121, 406, 11, 675, 338, 234, 314, 493, 210, 853, 483, 69, 86, 891, 579, 292, 714, 46, 889, 937, 665, 51, 426, 837, 594, 209, 235, 64, 522, 182, 446, 896, 901, 492, 784, 135, 948, 866, 483, 887, 298, 981, 323, 925, 838, 935, 727, 74, 280, 656, 909, 681, 40, 348, 346, 172, 226, 517, 373, 268, 413, 948, 597, 752, 933, 31, 881, 96, 197, 740, 753, 615, 477, 723, 428, 195, 220, 113, 37, 952, 951, 349, 413, 279, 782, 493, 171, 885, 929, 47, 460, 221, 640, 359, 298, 303, 608, 504, 488, 681, 474, 947, 439, 792, 931, 622, 590, 790, 712, 194, 417, 157, 22, 688, 329, 255, 27, 23, 672, 358, 437, 676, 908, 701, 220, 990, 184, 581, 645, 288, 889, 610, 710, 139, 833, 288, 619, 737, 323, 266, 331, 979, 658, 472, 562, 656, 263, 76, 110, 583, 599, 978, 621, 854, 987, 497, 422, 472, 372, 761, 576, 123, 956, 527, 749, 548, 589, 577, 115, 131, 731, 350, 129, 816, 748, 764, 388, 132, 760, 216, 669, 697, 274, 3, 591, 791, 589, 985, 229, 732, 436, 581, 303, 231, 549, 608, 910, 604, 500, 651, 628, 408, 267, 683, 387, 38, 171, 359, 687, 657, 491, 817, 327, 352, 752, 680, 426, 890, 27, 537, 859, 880, 194, 808, 534, 936, 329, 665, 642, 991, 340, 390, 125, 684, 71, 850, 147, 191, 950, 499, 755, 346, 243, 369, 983, 192, 905, 883, 681, 266, 731, 906, 593, 221, 610, 957, 591, 150, 203, 631, 48, 2, 375, 258, 494, 74, 560, 676, 318, 582, 528, 790, 577, 639, 564, 823, 97, 114, 866, 835, 9, 895, 609, 857, 702, 377, 114, 765, 711, 471, 271, 365, 936, 464, 211, 987, 979, 177, 197, 730, 387, 474, 684, 274, 595, 205, 222, 546, 428, 895, 144, 917, 262, 343, 107, 317, 981, 363, 836, 977, 696, 185, 432, 168, 250, 335, 166, 680, 523, 291, 255, 143, 115, 439, 75, 523, 256, 773, 267, 857, 946, 930, 228, 930, 472, 885, 465, 541, 259, 758, 368, 884, 708, 429, 32, 269, 418, 371, 583, 6, 468, 893, 954, 689, 687, 603, 1000, 791, 461, 496, 940, 552, 599, 308, 665, 489, 944, 1000, 997, 951, 44, 73, 340, 827, 559, 257, 101, 251, 128, 144, 745, 194, 167, 620, 131, 834, 651, 878, 726, 731, 268, 423, 380, 393, 913, 437, 800, 631, 83, 211, 578, 790, 234, 250, 378, 460, 421, 925, 609, 279, 345, 508, 161, 392, 65, 657, 868, 899, 598, 385, 560, 556, 177, 541, 498, 198, 443, 837, 642, 330, 239, 631, 553, 298, 472, 407, 628, 879, 373, 539, 562, 668, 244, 247, 923, 146, 682, 261, 492, 452, 240, 177, 958, 39, 143, 739, 372, 196, 777, 982, 208, 707, 397, 998, 597, 895, 664, 132, 442, 706, 153, 89, 991, 924, 651, 64, 702, 989, 783, 716, 440, 633, 927, 500, 75, 146, 953, 710, 936, 148, 106, 684, 429, 463, 233, 764, 782, 726, 430, 491, 396, 466, 326, 469, 963, 802, 136, 671, 820, 345, 889, 941, 71, 626, 381, 467, 549, 860, 631, 889, 249, 797, 392, 183, 804, 578, 226, 894, 492, 674, 986, 327, 544, 547, 286, 535, 967, 698, 266, 684, 616, 369, 672, 376, 782, 388, 825, 298, 172, 330, 126, 875, 996, 417, 241, 882, 852, 245, 306, 498, 133, 211, 398, 120, 145, 605, 301, 916, 962, 671, 275, 760, 339, 870, 424, 692, 751, 703, 753, 343, 152, 369, 959, 37, 283, 310, 441, 871, 172, 105, 340, 727, 453, 647, 513, 361, 408, 41, 952, 733, 98, 203, 784, 508, 749, 752, 146, 823, 202, 139, 748, 816, 303, 386, 735, 295, 445, 993, 130, 944, 888, 997, 246, 199, 438, 172, 925, 571, 842, 492, 499, 956, 126, 226, 857, 590, 783, 996, 772, 611, 752, 533, 220, 326, 925, 527, 33, 642, 994, 627, 493, 456, 631, 615, 489, 904, 887, 783, 726, 719, 198, 491, 267, 205, 951, 231, 816, 834, 405, 25, 178, 646, 710, 355, 600, 163, 658, 782, 783, 563, 574, 3, 267, 407, 73, 74, 958, 684, 563, 690, 869, 635, 428, 393, 971, 955, 152, 819, 643, 344, 695, 275, 746, 559, 586, 57, 904, 956, 762, 294, 723, 117, 547, 346, 472, 290, 71, 436, 238, 176, 332, 125, 23, 974, 56, 894, 420, 121, 429, 508, 56, 543, 8, 299, 711, 845, 179, 407, 948, 316, 118, 247, 866, 666, 938, 622, ]
Time Consuming: 0.07812643051147461